1-2-12-13-21-30-29-38-47-57-56-65-74-73-82-91-92-93-95-86-85-84-76-77-78-69-68-67-59-58-49-60-61-62-53-52-51-50-48-39-40-41-33-35-36-17-18-9-8-7-6-5-4-1
1-10-11-20-19-28-37-46-55-64-66-75-83-94-96-97-98-99-90-89-87-88-79-80-70-71-81-72-63-54-45-44-34-43-42-32-31-22-23-24-26-27-25-16-15-14-3-1